solving instance mcf arcs c51 3 6 sqrt
presolving:
(round 1, fast)       549 del vars, 549 del conss, 0 add conss, 519 chg bounds, 0 chg sides, 0 chg coeffs, 0 upgd conss, 0 impls, 0 clqs
   (0.4s) symmetry computation started: requiring (bin +, int +, cont +), (fixed: bin -, int -, cont -)
   (0.6s) no symmetry present (symcode time: 0.03)
presolving (2 rounds: 2 fast, 1 medium, 1 exhaustive):
 579 deleted vars, 549 deleted constraints, 0 added constraints, 519 tightened bounds, 0 added holes, 0 changed sides, 0 changed coefficients
 0 implications, 0 cliques
presolved problem has 52938 variables (0 bin, 0 int, 0 impl, 52938 cont) and 4068 constraints
   3549 constraints of type <linear>
    519 constraints of type <nonlinear>
Presolving Time: 0.45

 time | node  | left  |LP iter|LP it/n|mem/heur|mdpt |vars |cons |rows |cuts |sepa|confs|strbr|  dualbound   | primalbound  |  gap   | compl. 
  100s|     1 |     0 | 84251 |     - |   300M |   0 |  53k|4068 |4587 |   0 |  0 |   0 |   0 | 4.661636e+04 |      --      |    Inf | unknown
 1718s|     1 |     2 |672909 |     - |   375M |   0 |  53k|4068 |4587 |   0 |  1 |   0 |   0 | 4.661636e+04 |      --      |    Inf | unknown
 1739s|   100 |   101 |690962 |6128.4 |   385M |  83 |  53k|4068 |4587 |  15 |  1 |   0 |   0 | 4.661636e+04 |      --      |    Inf | unknown
 1741s|   200 |   201 |690989 |3048.9 |   388M | 183 |  53k|4068 |4587 |  15 |  1 |   0 |   0 | 4.661636e+04 |      --      |    Inf | unknown
 1772s|   300 |   301 |716292 |2113.8 |   392M | 187 |  53k|4068 |4588 |  29 |  2 |   0 |   0 | 4.661636e+04 |      --      |    Inf | unknown
 1797s|   400 |   401 |738453 |1639.6 |   393M | 187 |  53k|4068 |4589 |  47 |  1 |   0 |   0 | 4.661636e+04 |      --      |    Inf | unknown
 1845s|   500 |   501 |774418 |1383.1 |   394M | 187 |  53k|4068 |4594 |  65 |  2 |   0 |   0 | 4.661636e+04 |      --      |    Inf | unknown
 1908s|   600 |   601 |821913 |1231.5 |   398M | 187 |  53k|4068 |4595 |  90 |  2 |   0 |   0 | 4.661636e+04 |      --      |    Inf | unknown
 1977s|   700 |   699 |876674 |1133.7 |   406M | 187 |  53k|4069 |4592 | 115 |  1 |   1 |   0 | 4.661636e+04 |      --      |    Inf | unknown
 2061s|   800 |   799 |943699 |1075.7 |   407M | 187 |  53k|4069 |4597 | 153 |  1 |   1 |   0 | 4.661636e+04 |      --      |    Inf | unknown
 2198s|   900 |   897 |  1038k|1061.5 |   409M | 187 |  53k|4070 |4600 | 210 |  2 |   2 |   0 | 4.661636e+04 |      --      |    Inf | unknown
 2316s|  1000 |   997 |  1126k|1043.4 |   412M | 187 |  53k|4070 |4610 | 267 |  1 |   2 |   0 | 4.661636e+04 |      --      |    Inf | unknown
 2451s|  1100 |  1097 |  1218k|1032.3 |   413M | 187 |  53k|4070 |4615 | 323 |  1 |   2 |   0 | 4.661636e+04 |      --      |    Inf | unknown
 2550s|  1200 |  1197 |  1294k|1009.2 |   415M | 211 |  53k|4070 |4612 | 358 |  2 |   2 |   0 | 4.661636e+04 |      --      |    Inf | unknown
 2675s|  1300 |  1293 |  1382k| 999.4 |   416M | 211 |  53k|4072 |4610 | 397 |  2 |   4 |   0 | 4.661636e+04 |      --      |    Inf | unknown
 time | node  | left  |LP iter|LP it/n|mem/heur|mdpt |vars |cons |rows |cuts |sepa|confs|strbr|  dualbound   | primalbound  |  gap   | compl. 
 3328s|  1400 |  1393 |  1437k| 967.6 |   418M | 211 |  53k|4072 |4600 | 422 |  2 |   4 |   0 | 4.661636e+04 |      --      |    Inf | unknown
 3396s|  1500 |  1493 |  1488k| 936.6 |   420M | 211 |  53k|4072 |4593 | 447 |  2 |   4 |   0 | 4.661636e+04 |      --      |    Inf | unknown
 3469s|  1600 |  1593 |  1538k| 909.5 |   422M | 211 |  53k|4072 |4589 | 475 |  2 |   4 |   0 | 4.661636e+04 |      --      |    Inf | unknown
 3543s|  1700 |  1693 |  1593k| 888.3 |   424M | 211 |  53k|4072 |4613 | 502 |  1 |   4 |   0 | 4.661636e+04 |      --      |    Inf | unknown

SCIP Status        : solving was interrupted [time limit reached]
Solving Time (sec) : 3600.00
Solving Nodes      : 1729
Primal Bound       : +1.00000000000000e+20 (0 solutions)
Dual Bound         : +4.66163648594696e+04
Gap                : infinite
ERROR: LoadError: Result index of attribute MathOptInterface.ObjectiveValue(1) out of bounds. There are currently 0 solution(s) in the model.
Stacktrace:
  [1] check_result_index_bounds
    @ ~/.julia/packages/MathOptInterface/gLl4d/src/attributes.jl:207 [inlined]
  [2] get(o::SCIP.Optimizer, attr::MathOptInterface.ObjectiveValue)
    @ SCIP ~/.julia/packages/SCIP/PqPX5/src/MOI_wrapper/results.jl:89
  [3] get(b::MathOptInterface.Bridges.LazyBridgeOptimizer{SCIP.Optimizer}, attr::MathOptInterface.ObjectiveValue)
    @ MathOptInterface.Bridges ~/.julia/packages/MathOptInterface/gLl4d/src/Bridges/bridge_optimizer.jl:1098
  [4] _get_model_attribute(model::MathOptInterface.Utilities.CachingOptimizer{MathOptInterface.Bridges.LazyBridgeOptimizer{SCIP.Optimizer}, MathOptInterface.Utilities.UniversalFallback{MathOptInterface.Utilities.Model{Float64}}}, attr::MathOptInterface.ObjectiveValue)
    @ MathOptInterface.Utilities ~/.julia/packages/MathOptInterface/gLl4d/src/Utilities/cachingoptimizer.jl:833
  [5] get
    @ ~/.julia/packages/MathOptInterface/gLl4d/src/Utilities/cachingoptimizer.jl:900 [inlined]
  [6] _moi_get_result(model::MathOptInterface.Utilities.CachingOptimizer{MathOptInterface.Bridges.LazyBridgeOptimizer{SCIP.Optimizer}, MathOptInterface.Utilities.UniversalFallback{MathOptInterface.Utilities.Model{Float64}}}, args::MathOptInterface.ObjectiveValue)
    @ JuMP ~/.julia/packages/JuMP/i68GU/src/optimizer_interface.jl:1053
  [7] get(model::JuMP.Model, attr::MathOptInterface.ObjectiveValue)
    @ JuMP ~/.julia/packages/JuMP/i68GU/src/optimizer_interface.jl:1073
  [8] objective_value(model::JuMP.Model; result::Int64)
    @ JuMP ~/.julia/packages/JuMP/i68GU/src/objective.jl:122
  [9] objective_value
    @ ~/.julia/packages/JuMP/i68GU/src/objective.jl:118 [inlined]
 [10] nl_mcf(ptype::String, graph::String, commodities::String, nodes::String, incr::Int64, cost::Symbol, solver::SCIP.Optimizer, solver_params::Dict{String, Real}; restrict_to_commodities::Int64, solve::Bool, write_nl::Bool)
    @ IterativePWLB ~/git/ipwlb/code/sources/IterativePWLB/src/nlsolver.jl:1333
 [11] top-level scope
    @ ~/git/ipwlb/code/sources/IterativePWLB/test/scip/mcf_arcs/script.jl:10
in expression starting at /home/ccontard/git/ipwlb/code/sources/IterativePWLB/test/scip/mcf_arcs/script.jl:10
